\* ToyProblem *\
Maximize
Total_profit;_to_be_maximized: 25 Toy_A_units + 20 Toy_B_units
Subject To
Resource_constraint: 20 Toy_A_units + 12 Toy_B_units <= 2000
Time_constraint: 5 Toy_A_units + 5 Toy_B_units <= 540
Bounds
 0 <= Toy_A_units
 0 <= Toy_B_units
Generals
Toy_A_units
Toy_B_units
End
